50 8
459 403
869 484
616 277
181 840
779 877
665 910
898 491
314 528
724 167
641 863
212 856
564 19
127 749
632 162
721 528
510 360
142 211
521 207
241 685
822 248
692 907
382 629
532 306
22 708
169 859
701 180
816 245
208 652
461 449
539 894
883 233
384 468
412 434
862 553
335 564
447 703
557 292
479 578
445 376
527 612
126 550
832 170
698 398
103 700
439 374
353 647
658 832
231 792
536 714
355 442
